# 34644
param k := 6;
param n := 60;
param s := 1;
set E :=  (0,31) (0,37) (1,33) (2,42) (3,13) (3,38) (3,49) (4,48) (5,41) (5,47) (6,23) (7,37) (8,26) (8,50) (9,33) (10,15) (10,29) (10,48) (11,17) (12,17) (12,33) (12,43) (14,50) (16,20) (16,53) (17,36) (17,50) (18,21) (18,34) (19,24) (20,21) (21,35) (22,27) (23,38) (24,45) (24,51) (25,54) (27,35) (28,32) (30,57) (32,40) (33,54) (37,38) (37,42) (37,52) (39,42) (40,47) (41,53) (41,56) (43,46) (44,52) (45,56) (47,48) (47,59) (50,52) (50,55) (51,57) (53,58) (55,58);